5
240 284 200  14
326 468 482  138
277 81 241  348
314 321 9  781
371 495 67  521
20
114 130 19  90 219
33 90 494  79 492
212 197 146  376 409
134 385 190  149 106
83 69 483  197 207
148 55 60  252 21
356 86 403  220 271
490 366 297  68 83
478 410 180  263 199
239 42 34  160 85
337 387 349  66 428
325 405 91  99 209
177 114 217  12 80
259 260 174  439 97
372 247 59  72 361
59 30 11  102 16
322 416 339  327 358
158 338 133  39 331
267 31 424  38 276
374 494 407  352 152
